62	0

0	2	2	4
8	3	3	5	9
5	3	6	7	8
10	3	6	7	8
10	5	11	12	13	16	17
5	5	11	12	13	16	17
3	6	11	12	13	14	16	17
1	3	10	14	15
6	3	10	14	15
3	5	11	12	13	16	17
8	4	22	23	24	25
1	1	18
6	3	19	20	21
5	1	18
8	3	19	20	21
8	4	22	23	24	25
3	1	18
1	3	19	20	21
4	6	25	26	27	28	29	30
2	4	22	23	24	25
8	3	31	33	38
3	5	26	27	28	29	30
3	5	26	27	28	29	30
3	5	26	27	28	29	30
9	5	32	34	35	36	37
5	2	31	38
10	6	39	40	41	42	43	44
7	2	31	38
2	3	31	33	38
8	5	32	34	35	36	37
1	5	32	34	35	36	37
4	5	39	40	42	43	44
10	4	39	42	43	44
4	5	39	40	42	43	44
5	4	39	42	43	44
6	1	43
1	6	39	40	41	42	43	44
5	5	39	40	42	43	44
10	3	45	46	47
10	3	45	46	47
6	4	45	46	47	48
9	3	45	46	47
1	4	45	46	47	48
3	4	45	46	47	48
7	3	52	55	56
4	3	49	53	54
6	3	50	51	55
9	3	49	53	54
1	3	50	51	55
2	2	52	56
4	2	52	56
6	2	57	58
9	2	56	57
9	2	56	57
7	2	57	58
6	2	58	59
4	1	59
8	1	61
4	2	60	61
4	1	62
1	1	62
0	0
